11
0 133 170 155 122 190 177 130 169 93 26 
156 0 150 42 113 146 61 119 154 140 24 
80 197 0 130 150 38 67 150 194 196 98 
17 87 106 0 83 56 135 115 102 117 72 
187 64 114 156 0 54 113 9 33 146 114 
157 122 159 47 183 0 145 197 23 130 162 
136 51 174 67 45 60 0 40 54 25 155 
111 146 50 187 114 75 23 0 19 188 106 
159 192 3 26 78 15 115 25 0 75 173 
160 34 71 88 98 119 178 174 71 0 69 
193 186 103 81 14 28 3 100 128 26 0 
